000 000 000 000 000 000 000
000 000 050 075 040 070 000
000 050 000 000 030 040 000
000 075 000 000 050 000 070
000 040 030 050 000 060 080
000 070 040 000 060 000 050
000 000 000 070 080 050 000